(set-info :smt-lib-version 2.6)
(set-logic UFNIA)
(set-info :source |
Generated by: Geoff Sutcliffe
Generated on: 2026-03-11
Generator: TPTPWorld
Application: Benchmarking automated theorem provers
Time limit: 120.0

These benchmarks are translations from the TPTP Library (Thousands of
Problems for Theorem Provers), see http://www.cs.miami.edu/~tptp/

The TPTP is maintained by Geoff Sutcliffe, and he contributed this
selection of benchmarks to SMT-LIB.  They were exported from the
v9.2.1 realease of TPTP.
|)
(set-info :category "industrial")
(set-info :status unknown)
; SZS status Success
(declare-sort $$unsorted 0)
(declare-sort tptp.uni 0)
(declare-sort tptp.ty 0)
(declare-fun tptp.sort (tptp.ty tptp.uni) Bool)
(declare-fun tptp.witness (tptp.ty) tptp.uni)
(assert (forall ((A tptp.ty)) (tptp.sort A (tptp.witness A))))
(declare-fun tptp.int () tptp.ty)
(declare-fun tptp.real () tptp.ty)
(declare-sort tptp.bool 0)
(declare-fun tptp.bool1 () tptp.ty)
(declare-fun tptp.true () tptp.bool)
(declare-fun tptp.false () tptp.bool)
(declare-fun tptp.match_bool (tptp.ty tptp.bool tptp.uni tptp.uni) tptp.uni)
(assert (forall ((A tptp.ty) (X tptp.bool) (X1 tptp.uni) (X2 tptp.uni)) (tptp.sort A (tptp.match_bool A X X1 X2))))
(assert (forall ((A tptp.ty) (Z tptp.uni) (Z1 tptp.uni)) (=> (tptp.sort A Z) (= (tptp.match_bool A tptp.true Z Z1) Z))))
(assert (forall ((A tptp.ty) (Z tptp.uni) (Z1 tptp.uni)) (=> (tptp.sort A Z1) (= (tptp.match_bool A tptp.false Z Z1) Z1))))
(assert (not (= tptp.true tptp.false)))
(assert (forall ((U tptp.bool)) (or (= U tptp.true) (= U tptp.false))))
(declare-sort tptp.tuple0 0)
(declare-fun tptp.tuple01 () tptp.ty)
(declare-fun tptp.tuple02 () tptp.tuple0)
(assert (forall ((U tptp.tuple0)) (= U tptp.tuple02)))
(declare-fun tptp.qtmark () tptp.ty)
(assert (forall ((X Int) (Y Int) (Z Int)) (=> (<= X Y) (=> (<= 0 Z) (<= (* X Z) (* Y Z))))))
(declare-fun tptp.map (tptp.ty tptp.ty) tptp.ty)
(declare-fun tptp.get (tptp.ty tptp.ty tptp.uni tptp.uni) tptp.uni)
(assert (forall ((A tptp.ty) (B tptp.ty) (X tptp.uni) (X1 tptp.uni)) (tptp.sort B (tptp.get B A X X1))))
(declare-fun tptp.set (tptp.ty tptp.ty tptp.uni tptp.uni tptp.uni) tptp.uni)
(assert (forall ((A tptp.ty) (B tptp.ty) (X tptp.uni) (X1 tptp.uni) (X2 tptp.uni)) (tptp.sort (tptp.map A B) (tptp.set B A X X1 X2))))
(assert (forall ((A tptp.ty) (B tptp.ty) (M tptp.uni) (A1 tptp.uni) (A2 tptp.uni) (B1 tptp.uni)) (=> (tptp.sort B B1) (=> (= A1 A2) (= (tptp.get B A (tptp.set B A M A1 B1) A2) B1)))))
(assert (forall ((A tptp.ty) (B tptp.ty) (M tptp.uni) (A1 tptp.uni) (A2 tptp.uni)) (=> (tptp.sort A A1) (=> (tptp.sort A A2) (forall ((B1 tptp.uni)) (=> (not (= A1 A2)) (= (tptp.get B A (tptp.set B A M A1 B1) A2) (tptp.get B A M A2))))))))
(declare-fun tptp.const (tptp.ty tptp.ty tptp.uni) tptp.uni)
(assert (forall ((A tptp.ty) (B tptp.ty) (X tptp.uni)) (tptp.sort (tptp.map A B) (tptp.const B A X))))
(assert (forall ((A tptp.ty) (B tptp.ty) (B1 tptp.uni) (A1 tptp.uni)) (=> (tptp.sort B B1) (= (tptp.get B A (tptp.const B A B1) A1) B1))))
(declare-fun tptp.array (tptp.ty) tptp.ty)
(declare-fun tptp.mk_array (tptp.ty Int tptp.uni) tptp.uni)
(assert (forall ((A tptp.ty) (X Int) (X1 tptp.uni)) (tptp.sort (tptp.array A) (tptp.mk_array A X X1))))
(declare-fun tptp.length (tptp.ty tptp.uni) Int)
(assert (forall ((A tptp.ty) (U Int) (U1 tptp.uni)) (= (tptp.length A (tptp.mk_array A U U1)) U)))
(declare-fun tptp.elts (tptp.ty tptp.uni) tptp.uni)
(assert (forall ((A tptp.ty) (X tptp.uni)) (tptp.sort (tptp.map tptp.int A) (tptp.elts A X))))
(assert (forall ((A tptp.ty) (U Int) (U1 tptp.uni)) (=> (tptp.sort (tptp.map tptp.int A) U1) (= (tptp.elts A (tptp.mk_array A U U1)) U1))))
(assert (forall ((A tptp.ty) (U tptp.uni)) (= U (tptp.mk_array A (tptp.length A U) (tptp.elts A U)))))
(declare-fun tptp.get1 (tptp.ty tptp.uni Int) tptp.uni)
(assert (forall ((A tptp.ty) (X tptp.uni) (X1 Int)) (tptp.sort A (tptp.get1 A X X1))))
(declare-fun tptp.t2tb (Int) tptp.uni)
(assert (forall ((X Int)) (tptp.sort tptp.int (tptp.t2tb X))))
(declare-fun tptp.tb2t (tptp.uni) Int)
(assert (forall ((I Int)) (= (tptp.tb2t (tptp.t2tb I)) I)))
(assert (forall ((J tptp.uni)) (= (tptp.t2tb (tptp.tb2t J)) J)))
(assert (forall ((A tptp.ty) (A1 tptp.uni) (I Int)) (= (tptp.get1 A A1 I) (tptp.get A tptp.int (tptp.elts A A1) (tptp.t2tb I)))))
(declare-fun tptp.set1 (tptp.ty tptp.uni Int tptp.uni) tptp.uni)
(assert (forall ((A tptp.ty) (X tptp.uni) (X1 Int) (X2 tptp.uni)) (tptp.sort (tptp.array A) (tptp.set1 A X X1 X2))))
(assert (forall ((A tptp.ty) (A1 tptp.uni) (I Int) (V tptp.uni)) (= (tptp.set1 A A1 I V) (tptp.mk_array A (tptp.length A A1) (tptp.set A tptp.int (tptp.elts A A1) (tptp.t2tb I) V)))))
(declare-fun tptp.make (tptp.ty Int tptp.uni) tptp.uni)
(assert (forall ((A tptp.ty) (X Int) (X1 tptp.uni)) (tptp.sort (tptp.array A) (tptp.make A X X1))))
(assert (forall ((A tptp.ty) (N Int) (V tptp.uni)) (= (tptp.make A N V) (tptp.mk_array A N (tptp.const A tptp.int V)))))
(declare-sort tptp.map_int_int 0)
(declare-fun tptp.sorted_sub (tptp.map_int_int Int Int) Bool)
(declare-fun tptp.t2tb1 (tptp.map_int_int) tptp.uni)
(assert (forall ((X tptp.map_int_int)) (tptp.sort (tptp.map tptp.int tptp.int) (tptp.t2tb1 X))))
(declare-fun tptp.tb2t1 (tptp.uni) tptp.map_int_int)
(assert (forall ((I tptp.map_int_int)) (= (tptp.tb2t1 (tptp.t2tb1 I)) I)))
(assert (forall ((J tptp.uni)) (= (tptp.t2tb1 (tptp.tb2t1 J)) J)))
(assert (forall ((A tptp.map_int_int) (L Int) (U Int)) (= (tptp.sorted_sub A L U) (forall ((I1 Int) (I2 Int)) (let ((_let_1 (tptp.t2tb1 A))) (=> (and (<= L I1) (<= I1 I2) (< I2 U)) (<= (tptp.tb2t (tptp.get tptp.int tptp.int _let_1 (tptp.t2tb I1))) (tptp.tb2t (tptp.get tptp.int tptp.int _let_1 (tptp.t2tb I2))))))))))
(declare-sort tptp.array_int 0)
(declare-fun tptp.sorted_sub1 (tptp.array_int Int Int) Bool)
(declare-fun tptp.t2tb2 (tptp.array_int) tptp.uni)
(assert (forall ((X tptp.array_int)) (tptp.sort (tptp.array tptp.int) (tptp.t2tb2 X))))
(declare-fun tptp.tb2t2 (tptp.uni) tptp.array_int)
(assert (forall ((I tptp.array_int)) (= (tptp.tb2t2 (tptp.t2tb2 I)) I)))
(assert (forall ((J tptp.uni)) (= (tptp.t2tb2 (tptp.tb2t2 J)) J)))
(assert (forall ((A tptp.array_int) (L Int) (U Int)) (= (tptp.sorted_sub1 A L U) (tptp.sorted_sub (tptp.tb2t1 (tptp.elts tptp.int (tptp.t2tb2 A))) L U))))
(declare-fun tptp.sorted (tptp.array_int) Bool)
(assert (forall ((A tptp.array_int)) (let ((_let_1 (tptp.t2tb2 A))) (= (tptp.sorted A) (tptp.sorted_sub (tptp.tb2t1 (tptp.elts tptp.int _let_1)) 0 (tptp.length tptp.int _let_1))))))
(declare-fun tptp.k () Int)
(assert (< 0 tptp.k))
(declare-fun tptp.k_values (tptp.array_int) Bool)
(assert (forall ((A tptp.array_int)) (= (tptp.k_values A) (forall ((I Int)) (let ((_let_1 (tptp.t2tb2 A))) (let ((_let_2 (tptp.tb2t (tptp.get1 tptp.int _let_1 I)))) (=> (and (<= 0 I) (< I (tptp.length tptp.int _let_1))) (and (<= 0 _let_2) (< _let_2 tptp.k)))))))))
(declare-fun tptp.tuple2 (tptp.ty tptp.ty) tptp.ty)
(declare-fun tptp.tuple21 (tptp.ty tptp.ty tptp.uni tptp.uni) tptp.uni)
(assert (forall ((A tptp.ty) (A1 tptp.ty) (X tptp.uni) (X1 tptp.uni)) (tptp.sort (tptp.tuple2 A1 A) (tptp.tuple21 A1 A X X1))))
(declare-fun tptp.tuple2_proj_1 (tptp.ty tptp.ty tptp.uni) tptp.uni)
(assert (forall ((A tptp.ty) (A1 tptp.ty) (X tptp.uni)) (tptp.sort A1 (tptp.tuple2_proj_1 A1 A X))))
(assert (forall ((A tptp.ty) (A1 tptp.ty) (U tptp.uni) (U1 tptp.uni)) (=> (tptp.sort A1 U) (= (tptp.tuple2_proj_1 A1 A (tptp.tuple21 A1 A U U1)) U))))
(declare-fun tptp.tuple2_proj_2 (tptp.ty tptp.ty tptp.uni) tptp.uni)
(assert (forall ((A tptp.ty) (A1 tptp.ty) (X tptp.uni)) (tptp.sort A (tptp.tuple2_proj_2 A1 A X))))
(assert (forall ((A tptp.ty) (A1 tptp.ty) (U tptp.uni) (U1 tptp.uni)) (=> (tptp.sort A U1) (= (tptp.tuple2_proj_2 A1 A (tptp.tuple21 A1 A U U1)) U1))))
(assert (forall ((A tptp.ty) (A1 tptp.ty) (U tptp.uni)) (=> (tptp.sort (tptp.tuple2 A1 A) U) (= U (tptp.tuple21 A1 A (tptp.tuple2_proj_1 A1 A U) (tptp.tuple2_proj_2 A1 A U))))))
(declare-sort tptp.lparray_intcm_intrp 0)
(declare-fun tptp.eq (tptp.lparray_intcm_intrp Int) Bool)
(declare-fun tptp.t2tb3 (tptp.lparray_intcm_intrp) tptp.uni)
(assert (forall ((X tptp.lparray_intcm_intrp)) (tptp.sort (tptp.tuple2 (tptp.array tptp.int) tptp.int) (tptp.t2tb3 X))))
(declare-fun tptp.tb2t3 (tptp.uni) tptp.lparray_intcm_intrp)
(assert (forall ((I tptp.lparray_intcm_intrp)) (= (tptp.tb2t3 (tptp.t2tb3 I)) I)))
(assert (forall ((J tptp.uni)) (= (tptp.t2tb3 (tptp.tb2t3 J)) J)))
(assert (forall ((I Int) (A tptp.array_int) (V Int)) (let ((_let_1 (tptp.t2tb2 A))) (= (tptp.eq (tptp.tb2t3 (tptp.tuple21 (tptp.array tptp.int) tptp.int _let_1 (tptp.t2tb V))) I) (= (tptp.tb2t (tptp.get1 tptp.int _let_1 I)) V)))))
(declare-fun tptp.num_of (tptp.lparray_intcm_intrp Int Int) Int)
(assert (forall ((P tptp.lparray_intcm_intrp) (A Int) (B Int)) (=> (<= B A) (= (tptp.num_of P A B) 0))))
(assert (forall ((P tptp.lparray_intcm_intrp) (A Int) (B Int)) (let ((_let_1 (- B 1))) (=> (< A B) (=> (not (tptp.eq P _let_1)) (= (tptp.num_of P A B) (tptp.num_of P A _let_1)))))))
(assert (forall ((P tptp.lparray_intcm_intrp) (A Int) (B Int)) (let ((_let_1 (- B 1))) (=> (< A B) (=> (tptp.eq P _let_1) (= (tptp.num_of P A B) (+ 1 (tptp.num_of P A _let_1))))))))
(assert (forall ((P tptp.lparray_intcm_intrp) (A Int) (B Int)) (let ((_let_1 (tptp.num_of P A B))) (=> (< A B) (and (<= 0 _let_1) (<= _let_1 (- B A)))))))
(assert (forall ((P tptp.lparray_intcm_intrp) (A Int) (B Int) (C Int)) (=> (and (<= A B) (<= B C)) (= (tptp.num_of P A C) (+ (tptp.num_of P A B) (tptp.num_of P B C))))))
(assert (forall ((P tptp.lparray_intcm_intrp) (A Int) (B Int)) (=> (< A B) (=> (not (tptp.eq P A)) (= (tptp.num_of P A B) (tptp.num_of P (+ A 1) B))))))
(assert (forall ((P tptp.lparray_intcm_intrp) (A Int) (B Int)) (=> (< A B) (=> (tptp.eq P A) (= (tptp.num_of P A B) (+ 1 (tptp.num_of P (+ A 1) B)))))))
(assert (forall ((P tptp.lparray_intcm_intrp) (A Int) (B Int)) (=> (forall ((N Int)) (=> (and (<= A N) (< N B)) (not (tptp.eq P N)))) (= (tptp.num_of P A B) 0))))
(assert (forall ((P tptp.lparray_intcm_intrp) (A Int) (B Int)) (=> (<= A B) (=> (forall ((N Int)) (=> (and (<= A N) (< N B)) (tptp.eq P N))) (= (tptp.num_of P A B) (- B A))))))
(assert (forall ((P tptp.lparray_intcm_intrp) (I Int) (J Int) (K Int)) (=> (and (<= I J) (<= J K)) (<= (tptp.num_of P I J) (tptp.num_of P I K)))))
(assert (forall ((P tptp.lparray_intcm_intrp) (I Int) (J Int) (K Int) (L Int)) (=> (and (<= I J) (<= J K) (< K L)) (=> (tptp.eq P K) (< (tptp.num_of P I J) (tptp.num_of P I L))))))
(assert (forall ((P1 tptp.lparray_intcm_intrp) (P2 tptp.lparray_intcm_intrp) (A Int) (B Int)) (=> (forall ((J Int)) (=> (and (<= A J) (< J B)) (=> (tptp.eq P1 J) (tptp.eq P2 J)))) (<= (tptp.num_of P1 A B) (tptp.num_of P2 A B)))))
(assert (forall ((P1 tptp.lparray_intcm_intrp) (P2 tptp.lparray_intcm_intrp) (A Int) (B Int) (I Int)) (=> (and (<= A I) (< I B)) (=> (forall ((J Int)) (=> (and (<= A J) (< J B)) (=> (tptp.eq P1 J) (tptp.eq P2 J)))) (=> (not (tptp.eq P1 I)) (=> (tptp.eq P2 I) (< (tptp.num_of P1 A B) (tptp.num_of P2 A B))))))))
(declare-fun tptp.numeq (tptp.array_int Int Int Int) Int)
(assert (forall ((A tptp.array_int) (V Int) (I Int) (J Int)) (= (tptp.numeq A V I J) (tptp.num_of (tptp.tb2t3 (tptp.tuple21 (tptp.array tptp.int) tptp.int (tptp.t2tb2 A) (tptp.t2tb V))) I J))))
(declare-fun tptp.lt (tptp.lparray_intcm_intrp Int) Bool)
(assert (forall ((I Int) (A tptp.array_int) (V Int)) (let ((_let_1 (tptp.t2tb2 A))) (= (tptp.lt (tptp.tb2t3 (tptp.tuple21 (tptp.array tptp.int) tptp.int _let_1 (tptp.t2tb V))) I) (< (tptp.tb2t (tptp.get1 tptp.int _let_1 I)) V)))))
(declare-fun tptp.num_of1 (tptp.lparray_intcm_intrp Int Int) Int)
(assert (forall ((P tptp.lparray_intcm_intrp) (A Int) (B Int)) (=> (<= B A) (= (tptp.num_of1 P A B) 0))))
(assert (forall ((P tptp.lparray_intcm_intrp) (A Int) (B Int)) (let ((_let_1 (- B 1))) (=> (< A B) (=> (not (tptp.lt P _let_1)) (= (tptp.num_of1 P A B) (tptp.num_of1 P A _let_1)))))))
(assert (forall ((P tptp.lparray_intcm_intrp) (A Int) (B Int)) (let ((_let_1 (- B 1))) (=> (< A B) (=> (tptp.lt P _let_1) (= (tptp.num_of1 P A B) (+ 1 (tptp.num_of1 P A _let_1))))))))
(assert (forall ((P tptp.lparray_intcm_intrp) (A Int) (B Int)) (let ((_let_1 (tptp.num_of1 P A B))) (=> (< A B) (and (<= 0 _let_1) (<= _let_1 (- B A)))))))
(assert (forall ((P tptp.lparray_intcm_intrp) (A Int) (B Int) (C Int)) (=> (and (<= A B) (<= B C)) (= (tptp.num_of1 P A C) (+ (tptp.num_of1 P A B) (tptp.num_of1 P B C))))))
(assert (forall ((P tptp.lparray_intcm_intrp) (A Int) (B Int)) (=> (< A B) (=> (not (tptp.lt P A)) (= (tptp.num_of1 P A B) (tptp.num_of1 P (+ A 1) B))))))
(assert (forall ((P tptp.lparray_intcm_intrp) (A Int) (B Int)) (=> (< A B) (=> (tptp.lt P A) (= (tptp.num_of1 P A B) (+ 1 (tptp.num_of1 P (+ A 1) B)))))))
(assert (forall ((P tptp.lparray_intcm_intrp) (A Int) (B Int)) (=> (forall ((N Int)) (=> (and (<= A N) (< N B)) (not (tptp.lt P N)))) (= (tptp.num_of1 P A B) 0))))
(assert (forall ((P tptp.lparray_intcm_intrp) (A Int) (B Int)) (=> (<= A B) (=> (forall ((N Int)) (=> (and (<= A N) (< N B)) (tptp.lt P N))) (= (tptp.num_of1 P A B) (- B A))))))
(assert (forall ((P tptp.lparray_intcm_intrp) (I Int) (J Int) (K Int)) (=> (and (<= I J) (<= J K)) (<= (tptp.num_of1 P I J) (tptp.num_of1 P I K)))))
(assert (forall ((P tptp.lparray_intcm_intrp) (I Int) (J Int) (K Int) (L Int)) (=> (and (<= I J) (<= J K) (< K L)) (=> (tptp.lt P K) (< (tptp.num_of1 P I J) (tptp.num_of1 P I L))))))
(assert (forall ((P1 tptp.lparray_intcm_intrp) (P2 tptp.lparray_intcm_intrp) (A Int) (B Int)) (=> (forall ((J Int)) (=> (and (<= A J) (< J B)) (=> (tptp.lt P1 J) (tptp.lt P2 J)))) (<= (tptp.num_of1 P1 A B) (tptp.num_of1 P2 A B)))))
(assert (forall ((P1 tptp.lparray_intcm_intrp) (P2 tptp.lparray_intcm_intrp) (A Int) (B Int) (I Int)) (=> (and (<= A I) (< I B)) (=> (forall ((J Int)) (=> (and (<= A J) (< J B)) (=> (tptp.lt P1 J) (tptp.lt P2 J)))) (=> (not (tptp.lt P1 I)) (=> (tptp.lt P2 I) (< (tptp.num_of1 P1 A B) (tptp.num_of1 P2 A B))))))))
(declare-fun tptp.numlt (tptp.array_int Int Int Int) Int)
(assert (forall ((A tptp.array_int) (V Int) (I Int) (J Int)) (= (tptp.numlt A V I J) (tptp.num_of1 (tptp.tb2t3 (tptp.tuple21 (tptp.array tptp.int) tptp.int (tptp.t2tb2 A) (tptp.t2tb V))) I J))))
(assert (forall ((A tptp.array_int)) (=> (tptp.k_values A) (forall ((V Int)) (=> (and (<= 0 V) (< V tptp.k)) (forall ((L Int) (U Int)) (=> (and (<= 0 L) (< L U) (<= U (tptp.length tptp.int (tptp.t2tb2 A)))) (= (+ (tptp.numlt A V L U) (tptp.numeq A V L U)) (tptp.numlt A (+ V 1) L U)))))))))
(declare-fun tptp.permut (tptp.array_int tptp.array_int) Bool)
(assert (forall ((A tptp.array_int) (B tptp.array_int)) (= (tptp.permut A B) (and (= (tptp.length tptp.int (tptp.t2tb2 A)) (tptp.length tptp.int (tptp.t2tb2 B))) (forall ((V Int)) (=> (and (<= 0 V) (< V tptp.k)) (= (tptp.numeq A V 0 (tptp.length tptp.int (tptp.t2tb2 A))) (tptp.numeq B V 0 (tptp.length tptp.int (tptp.t2tb2 B))))))))))
(declare-fun tptp.ref (tptp.ty) tptp.ty)
(declare-fun tptp.mk_ref (tptp.ty tptp.uni) tptp.uni)
(assert (forall ((A tptp.ty) (X tptp.uni)) (tptp.sort (tptp.ref A) (tptp.mk_ref A X))))
(declare-fun tptp.contents (tptp.ty tptp.uni) tptp.uni)
(assert (forall ((A tptp.ty) (X tptp.uni)) (tptp.sort A (tptp.contents A X))))
(assert (forall ((A tptp.ty) (U tptp.uni)) (=> (tptp.sort A U) (= (tptp.contents A (tptp.mk_ref A U)) U))))
(assert (forall ((A tptp.ty) (U tptp.uni)) (=> (tptp.sort (tptp.ref A) U) (= U (tptp.mk_ref A (tptp.contents A U))))))
(assert (not (forall ((A Int) (A1 tptp.map_int_int) (B Int) (B1 tptp.map_int_int)) (let ((_let_1 (<= 0 tptp.k))) (=> (and (<= 0 A) (<= 0 B) (tptp.k_values (tptp.tb2t2 (tptp.mk_array tptp.int A (tptp.t2tb1 A1)))) (= A B)) (=> _let_1 (=> _let_1 (=> (<= 0 (- A 1)) (forall ((C tptp.map_int_int)) (=> (forall ((V Int)) (let ((_let_1 (tptp.t2tb V))) (=> (and (<= 0 V) (< V tptp.k)) (= (tptp.tb2t (tptp.get tptp.int tptp.int (tptp.t2tb1 C) _let_1)) (tptp.num_of (tptp.tb2t3 (tptp.tuple21 (tptp.array tptp.int) tptp.int (tptp.mk_array tptp.int A (tptp.t2tb1 A1)) _let_1)) 0 (+ (- A 1) 1)))))) (=> (<= 0 (- tptp.k 1)) (forall ((J Int) (B2 tptp.map_int_int) (V Int)) (let ((_let_1 (tptp.t2tb V))) (let ((_let_2 (<= 0 V))) (=> (and _let_2 (<= V (- tptp.k 1))) (=> (and (= J (tptp.num_of1 (tptp.tb2t3 (tptp.tuple21 (tptp.array tptp.int) tptp.int (tptp.mk_array tptp.int A (tptp.t2tb1 A1)) _let_1)) 0 A)) (tptp.sorted_sub B2 0 J) (forall ((E Int)) (let ((_let_1 (tptp.tb2t (tptp.get tptp.int tptp.int (tptp.t2tb1 B2) (tptp.t2tb E))))) (=> (and (<= 0 E) (< E J)) (and (<= 0 _let_1) (< _let_1 V))))) (forall ((F Int)) (let ((_let_1 (tptp.t2tb F))) (let ((_let_2 (tptp.array tptp.int))) (=> (and (<= 0 F) (< F V)) (= (tptp.num_of (tptp.tb2t3 (tptp.tuple21 _let_2 tptp.int (tptp.mk_array tptp.int B (tptp.t2tb1 B2)) _let_1)) 0 J) (tptp.num_of (tptp.tb2t3 (tptp.tuple21 _let_2 tptp.int (tptp.mk_array tptp.int A (tptp.t2tb1 A1)) _let_1)) 0 A))))))) (=> (and (<= 0 tptp.k) _let_2 (< V tptp.k)) (=> (<= 1 (tptp.tb2t (tptp.get tptp.int tptp.int (tptp.t2tb1 C) _let_1))) (forall ((J1 Int) (B3 tptp.map_int_int) (I Int)) (let ((_let_1 (tptp.t2tb V))) (let ((_let_2 (tptp.array tptp.int))) (=> (and (<= 1 I) (<= I (tptp.tb2t (tptp.get tptp.int tptp.int (tptp.t2tb1 C) _let_1)))) (=> (and (= (+ (- J1 I) 1) (tptp.num_of1 (tptp.tb2t3 (tptp.tuple21 _let_2 tptp.int (tptp.mk_array tptp.int A (tptp.t2tb1 A1)) _let_1)) 0 A)) (tptp.sorted_sub B3 0 J1) (forall ((E Int)) (let ((_let_1 (tptp.tb2t (tptp.get tptp.int tptp.int (tptp.t2tb1 B3) (tptp.t2tb E))))) (=> (and (<= 0 E) (< E J1)) (and (<= 0 _let_1) (<= _let_1 V))))) (forall ((F Int)) (let ((_let_1 (tptp.t2tb F))) (let ((_let_2 (tptp.array tptp.int))) (=> (and (<= 0 F) (< F V)) (= (tptp.num_of (tptp.tb2t3 (tptp.tuple21 _let_2 tptp.int (tptp.mk_array tptp.int B (tptp.t2tb1 B3)) _let_1)) 0 J1) (tptp.num_of (tptp.tb2t3 (tptp.tuple21 _let_2 tptp.int (tptp.mk_array tptp.int A (tptp.t2tb1 A1)) _let_1)) 0 A)))))) (= (tptp.num_of (tptp.tb2t3 (tptp.tuple21 _let_2 tptp.int (tptp.mk_array tptp.int B (tptp.t2tb1 B3)) _let_1)) 0 J1) (- I 1))) (=> (and (<= 0 B) (<= 0 J1) (< J1 B)) (forall ((B4 tptp.map_int_int)) (=> (and (<= 0 B) (= B4 (tptp.tb2t1 (tptp.set tptp.int tptp.int (tptp.t2tb1 B3) (tptp.t2tb J1) (tptp.t2tb V))))) (forall ((J2 Int)) (=> (= J2 (+ J1 1)) (forall ((E Int)) (let ((_let_1 (tptp.tb2t (tptp.get tptp.int tptp.int (tptp.t2tb1 B4) (tptp.t2tb E))))) (=> (and (<= 0 E) (< E J2)) (and (<= 0 _let_1) (<= _let_1 V)))))))))))))))))))))))))))))))))
(check-sat)
(exit)
